NAME : euro-night-0000015.instance.-37961104.tour
COMMENT : Length = -37961104
COMMENT : Found by LKH [Keld Helsgaun] Mon May 27 11:00:08 2019
TYPE : TOUR
DIMENSION : 15
TOUR_SECTION
1
13
10
8
9
7
6
11
12
14
15
4
5
3
2
-1
EOF
